c CNF formula generated by generate_input.py
c Number of variables: 25
c Number of clauses: 25
c Clause length: random between 1 and 4
p cnf 25 25
14 0
-21 0
-9 17 0
19 0
-11 0
-24 0
12 0
20 1 16 0
9 0
18 0
-8 24 14 0
18 0
-2 -6 0
9 16 0
11 4 12 0
18 0
5 -15 19 4 0
-5 7 0
-20 24 -13 -22 0
2 0
-1 -10 -13 -8 0
8 1 0
-12 -22 2 -20 0
-21 0
-16 0
